NAME : XML100_3123_02
DIMENSION : 101
NB_CLUSTERS : 28
CLUSTERING_ALG : KMeans
CLUSTERING_PARAMS : k(32)
CLUSTERS
1 0
2 1 21 33 44 47
3 32 98
4 24 36 68 77 81
5 8 12 48 50 51 67
6 27 46 90
7 28 39 41 61 66 92
8 75 78
9 6 99
10 74 82
11 2 40 60 63 64 73 76
12 3 26 56 59 62 85 97
13 45 58 80 86 87 95
14 5 17 25 65
15 4 31 35 55
16 22 34
17 11 13 83 88
18 29 49
19 37 42 79 89
20 15 20 84 96
21 9 23 30
22 38 54 70 91
23 18 94
24 16 43 52 53 100
25 14 19 71
26 69 93
27 10 72
28 7 57
EOF